Minimize
  obj: 1.0000000000000000e+00 x3
Subject To
 C0 : 1.0000000000000000e+00 x0 + 5.0000000000000000e-01 x1 + 5.0000000000000000e-01 x2 + 1.0000000000000000e+00 x3 >= 5.0000000000000000e-01
 C1 : 1.0000000000000000e+00 x0 + 1.0000000000000000e+00 x3 >= 0.0000000000000000e+00
 C2 : 1.0000000000000000e+00 x0 + 1.0000000000000000e+00 x1 + 1.0000000000000000e+00 x2 + 1.0000000000000000e+00 x3 >= 2.0000000000000000e+00
 C3 : 1.0000000000000000e+00 x0 + 1.0000000000000000e+00 x1 + 1.0000000000000000e+00 x3 >= 1.0000000000000000e+00
 C4 : 1.0000000000000000e+00 x0 + 1.0000000000000000e+00 x1 + 1.0000000000000000e+00 x3 >= 1.0000000000000000e+00
 C5 : 1.0000000000000000e+00 x0 + 1.0000000000000000e+00 x2 + 1.0000000000000000e+00 x3 >= 1.0000000000000000e+00
 C6 : 1.0000000000000000e+00 x0 + 1.0000000000000000e+00 x2 + 1.0000000000000000e+00 x3 >= 1.0000000000000000e+00
 C7 : 1.0000000000000000e+00 x0 + 1.0000000000000000e+00 x1 + 1.0000000000000000e+00 x2 + 1.0000000000000000e+00 x3 >= 2.0000000000000000e+00
 C8 : 1.0000000000000000e+00 x0 + 1.0000000000000000e+00 x1 + 1.0000000000000000e+00 x3 >= 1.0000000000000000e+00
 C9 : 1.0000000000000000e+00 x0 + 5.0000000000000000e-01 x1 + 5.0000000000000000e-01 x2 + 1.0000000000000000e+00 x3 >= 5.0000000000000000e-01
 C10 : 1.0000000000000000e+00 x0 + 5.0000000000000000e-01 x2 + 1.0000000000000000e+00 x3 >= 2.5000000000000000e-01
 C11 : 1.0000000000000000e+00 x0 + 1.0000000000000000e+00 x1 + 5.0000000000000000e-01 x2 + 1.0000000000000000e+00 x3 >= 1.2500000000000000e+00
 C12 : 1.0000000000000000e+00 x0 + 5.0000000000000000e-01 x1 + 1.0000000000000000e+00 x3 >= 2.5000000000000000e-01
 C13 : 1.0000000000000000e+00 x0 + 5.0000000000000000e-01 x1 + 1.0000000000000000e+00 x2 + 1.0000000000000000e+00 x3 >= 1.2500000000000000e+00
 C14 : 1.0000000000000000e+00 x0 + 5.0000000000000000e-01 x1 + 5.0000000000000000e-01 x2 + 1.0000000000000000e+00 x3 >= 5.0000000000000000e-01
 C15 : 1.0000000000000000e+00 x0 + 5.0000000000000000e-01 x2 + 1.0000000000000000e+00 x3 >= 2.5000000000000000e-01
 C16 : 1.0000000000000000e+00 x0 + 1.0000000000000000e+00 x1 + 5.0000000000000000e-01 x2 + 1.0000000000000000e+00 x3 >= 1.2500000000000000e+00
 C17 : 1.0000000000000000e+00 x0 + 5.0000000000000000e-01 x1 + 1.0000000000000000e+00 x3 >= 2.5000000000000000e-01
 C18 : 1.0000000000000000e+00 x0 + 5.0000000000000000e-01 x1 + 1.0000000000000000e+00 x2 + 1.0000000000000000e+00 x3 >= 1.2500000000000000e+00
 C19 : 1.0000000000000000e+00 x0 + 5.0000000000000000e-01 x1 + 5.0000000000000000e-01 x2 + 1.0000000000000000e+00 x3 >= 5.0000000000000000e-01
 C20 : 1.0000000000000000e+00 x0 + 5.0000000000000000e-01 x2 + 1.0000000000000000e+00 x3 >= 2.5000000000000000e-01
 C21 : 1.0000000000000000e+00 x0 + 1.0000000000000000e+00 x1 + 5.0000000000000000e-01 x2 + 1.0000000000000000e+00 x3 >= 1.2500000000000000e+00
 C22 : 1.0000000000000000e+00 x0 + 5.0000000000000000e-01 x1 + 1.0000000000000000e+00 x3 >= 2.5000000000000000e-01
 C23 : 1.0000000000000000e+00 x0 + 5.0000000000000000e-01 x1 + 1.0000000000000000e+00 x2 + 1.0000000000000000e+00 x3 >= 1.2500000000000000e+00
 C24 : 1.0000000000000000e+00 x0 + 5.0000000000000000e-01 x1 + 5.0000000000000000e-01 x2 + 1.0000000000000000e+00 x3 >= 5.0000000000000000e-01
 C25 : 1.0000000000000000e+00 x0 + 5.0000000000000000e-01 x2 + 1.0000000000000000e+00 x3 >= 2.5000000000000000e-01
 C26 : 1.0000000000000000e+00 x0 + 1.0000000000000000e+00 x1 + 5.0000000000000000e-01 x2 + 1.0000000000000000e+00 x3 >= 1.2500000000000000e+00
 C27 : 1.0000000000000000e+00 x0 + 5.0000000000000000e-01 x1 + 1.0000000000000000e+00 x3 >= 2.5000000000000000e-01
 C28 : 1.0000000000000000e+00 x0 + 5.0000000000000000e-01 x1 + 1.0000000000000000e+00 x2 + 1.0000000000000000e+00 x3 >= 1.2500000000000000e+00
 C29 : -1.0000000000000000e+00 x0 - 5.0000000000000000e-01 x1 - 5.0000000000000000e-01 x2 + 1.0000000000000000e+00 x3 >= -5.0000000000000000e-01
 C30 : -1.0000000000000000e+00 x0 + 1.0000000000000000e+00 x3 >= -0.0000000000000000e+00
 C31 : -1.0000000000000000e+00 x0 - 1.0000000000000000e+00 x1 - 1.0000000000000000e+00 x2 + 1.0000000000000000e+00 x3 >= -2.0000000000000000e+00
 C32 : -1.0000000000000000e+00 x0 - 1.0000000000000000e+00 x1 + 1.0000000000000000e+00 x3 >= -1.0000000000000000e+00
 C33 : -1.0000000000000000e+00 x0 - 1.0000000000000000e+00 x1 + 1.0000000000000000e+00 x3 >= -1.0000000000000000e+00
 C34 : -1.0000000000000000e+00 x0 - 1.0000000000000000e+00 x2 + 1.0000000000000000e+00 x3 >= -1.0000000000000000e+00
 C35 : -1.0000000000000000e+00 x0 - 1.0000000000000000e+00 x2 + 1.0000000000000000e+00 x3 >= -1.0000000000000000e+00
 C36 : -1.0000000000000000e+00 x0 - 1.0000000000000000e+00 x1 - 1.0000000000000000e+00 x2 + 1.0000000000000000e+00 x3 >= -2.0000000000000000e+00
 C37 : -1.0000000000000000e+00 x0 - 1.0000000000000000e+00 x1 + 1.0000000000000000e+00 x3 >= -1.0000000000000000e+00
 C38 : -1.0000000000000000e+00 x0 - 5.0000000000000000e-01 x1 - 5.0000000000000000e-01 x2 + 1.0000000000000000e+00 x3 >= -5.0000000000000000e-01
 C39 : -1.0000000000000000e+00 x0 - 5.0000000000000000e-01 x2 + 1.0000000000000000e+00 x3 >= -2.5000000000000000e-01
 C40 : -1.0000000000000000e+00 x0 - 1.0000000000000000e+00 x1 - 5.0000000000000000e-01 x2 + 1.0000000000000000e+00 x3 >= -1.2500000000000000e+00
 C41 : -1.0000000000000000e+00 x0 - 5.0000000000000000e-01 x1 + 1.0000000000000000e+00 x3 >= -2.5000000000000000e-01
 C42 : -1.0000000000000000e+00 x0 - 5.0000000000000000e-01 x1 - 1.0000000000000000e+00 x2 + 1.0000000000000000e+00 x3 >= -1.2500000000000000e+00
 C43 : -1.0000000000000000e+00 x0 - 5.0000000000000000e-01 x1 - 5.0000000000000000e-01 x2 + 1.0000000000000000e+00 x3 >= -5.0000000000000000e-01
 C44 : -1.0000000000000000e+00 x0 - 5.0000000000000000e-01 x2 + 1.0000000000000000e+00 x3 >= -2.5000000000000000e-01
 C45 : -1.0000000000000000e+00 x0 - 1.0000000000000000e+00 x1 - 5.0000000000000000e-01 x2 + 1.0000000000000000e+00 x3 >= -1.2500000000000000e+00
 C46 : -1.0000000000000000e+00 x0 - 5.0000000000000000e-01 x1 + 1.0000000000000000e+00 x3 >= -2.5000000000000000e-01
 C47 : -1.0000000000000000e+00 x0 - 5.0000000000000000e-01 x1 - 1.0000000000000000e+00 x2 + 1.0000000000000000e+00 x3 >= -1.2500000000000000e+00
 C48 : -1.0000000000000000e+00 x0 - 5.0000000000000000e-01 x1 - 5.0000000000000000e-01 x2 + 1.0000000000000000e+00 x3 >= -5.0000000000000000e-01
 C49 : -1.0000000000000000e+00 x0 - 5.0000000000000000e-01 x2 + 1.0000000000000000e+00 x3 >= -2.5000000000000000e-01
 C50 : -1.0000000000000000e+00 x0 - 1.0000000000000000e+00 x1 - 5.0000000000000000e-01 x2 + 1.0000000000000000e+00 x3 >= -1.2500000000000000e+00
 C51 : -1.0000000000000000e+00 x0 - 5.0000000000000000e-01 x1 + 1.0000000000000000e+00 x3 >= -2.5000000000000000e-01
 C52 : -1.0000000000000000e+00 x0 - 5.0000000000000000e-01 x1 - 1.0000000000000000e+00 x2 + 1.0000000000000000e+00 x3 >= -1.2500000000000000e+00
 C53 : -1.0000000000000000e+00 x0 - 5.0000000000000000e-01 x1 - 5.0000000000000000e-01 x2 + 1.0000000000000000e+00 x3 >= -5.0000000000000000e-01
 C54 : -1.0000000000000000e+00 x0 - 5.0000000000000000e-01 x2 + 1.0000000000000000e+00 x3 >= -2.5000000000000000e-01
 C55 : -1.0000000000000000e+00 x0 - 1.0000000000000000e+00 x1 - 5.0000000000000000e-01 x2 + 1.0000000000000000e+00 x3 >= -1.2500000000000000e+00
 C56 : -1.0000000000000000e+00 x0 - 5.0000000000000000e-01 x1 + 1.0000000000000000e+00 x3 >= -2.5000000000000000e-01
 C57 : -1.0000000000000000e+00 x0 - 5.0000000000000000e-01 x1 - 1.0000000000000000e+00 x2 + 1.0000000000000000e+00 x3 >= -1.2500000000000000e+00
Bounds
  x0 free
  x1 free
  x2 free
  x3 free
End
